\ This file has been generated by DOcplex
\ ENCODING=ISO-8859-1
\Problem name: random_problem.lp

Minimize
 obj: - 940 x0 - 470 x1 - 235 x2 + 1352 x3 + 676 x4 + 338 x5 + 1572 x6 + 786 x7
      + 393 x8 + 1880 x9 + 940 x10 + 470 x11 + 1428 x12 + 714 x13 + 357 x14 + [
      43712 x0^2 + 43712 x0*x1 + 21856 x0*x2 + 7936 x0*x3 + 3968 x0*x4
      + 1984 x0*x5 + 9472 x0*x6 + 4736 x0*x7 + 2368 x0*x8 + 6272 x0*x9
      + 3136 x0*x10 + 1568 x0*x11 - 448 x0*x12 - 224 x0*x13 - 112 x0*x14
      + 10928 x1^2 + 10928 x1*x2 + 3968 x1*x3 + 1984 x1*x4 + 992 x1*x5
      + 4736 x1*x6 + 2368 x1*x7 + 1184 x1*x8 + 3136 x1*x9 + 1568 x1*x10
      + 784 x1*x11 - 224 x1*x12 - 112 x1*x13 - 56 x1*x14 + 2732 x2^2
      + 1984 x2*x3 + 992 x2*x4 + 496 x2*x5 + 2368 x2*x6 + 1184 x2*x7 + 592 x2*x8
      + 1568 x2*x9 + 784 x2*x10 + 392 x2*x11 - 112 x2*x12 - 56 x2*x13
      - 28 x2*x14 + 9792 x3^2 + 9792 x3*x4 + 4896 x3*x5 + 1920 x3*x6 + 960 x3*x7
      + 480 x3*x8 + 8320 x3*x9 + 4160 x3*x10 + 2080 x3*x11 - 448 x3*x12
      - 224 x3*x13 - 112 x3*x14 + 2448 x4^2 + 2448 x4*x5 + 960 x4*x6 + 480 x4*x7
      + 240 x4*x8 + 4160 x4*x9 + 2080 x4*x10 + 1040 x4*x11 - 224 x4*x12
      - 112 x4*x13 - 56 x4*x14 + 612 x5^2 + 480 x5*x6 + 240 x5*x7 + 120 x5*x8
      + 2080 x5*x9 + 1040 x5*x10 + 520 x5*x11 - 112 x5*x12 - 56 x5*x13
      - 28 x5*x14 + 4000 x6^2 + 4000 x6*x7 + 2000 x6*x8 + 5184 x6*x9
      + 2592 x6*x10 + 1296 x6*x11 + 1536 x6*x12 + 768 x6*x13 + 384 x6*x14
      + 1000 x7^2 + 1000 x7*x8 + 2592 x7*x9 + 1296 x7*x10 + 648 x7*x11
      + 768 x7*x12 + 384 x7*x13 + 192 x7*x14 + 250 x8^2 + 1296 x8*x9
      + 648 x8*x10 + 324 x8*x11 + 384 x8*x12 + 192 x8*x13 + 96 x8*x14
      + 10976 x9^2 + 10976 x9*x10 + 5488 x9*x11 - 512 x9*x12 - 256 x9*x13
      - 128 x9*x14 + 2744 x10^2 + 2744 x10*x11 - 256 x10*x12 - 128 x10*x13
      - 64 x10*x14 + 686 x11^2 - 128 x11*x12 - 64 x11*x13 - 32 x11*x14
      + 1952 x12^2 + 1952 x12*x13 + 976 x12*x14 + 488 x13^2 + 488 x13*x14
      + 122 x14^2 ]/2
Subject To
 c0: 4 x0 + 2 x1 + x2 + 4 x3 + 2 x4 + x5 + 4 x6 + 2 x7 + x8 + 4 x9 + 2 x10 + x11
     + 4 x12 + 2 x13 + x14 = 7

Bounds
 0 <= x0 <= 1
 0 <= x1 <= 1
 0 <= x2 <= 1
 0 <= x3 <= 1
 0 <= x4 <= 1
 0 <= x5 <= 1
 0 <= x6 <= 1
 0 <= x7 <= 1
 0 <= x8 <= 1
 0 <= x9 <= 1
 0 <= x10 <= 1
 0 <= x11 <= 1
 0 <= x12 <= 1
 0 <= x13 <= 1
 0 <= x14 <= 1

Binaries
 x0 x1 x2 x3 x4 x5 x6 x7 x8 x9 x10 x11 x12 x13 x14
End
